set VV := 0 1 2 3 4 5 6 7 8 9 10 11 12 13 14 15 16 17 ;
set VS := 0 1 2 3 4 5 6 7 8 9 10 11 12 13 14 15 16 17 18 19 20 21 22 23 24 25 26 27 28 29 30 31 32 33 34 35 36 37 38 39 ;
param cv := 
0 17
1 24
2 20
3 22
4 17
5 15
6 18
7 19
8 11
9 12
10 22
11 16
12 20
13 13
14 14
15 18
16 12
17 15
;
param cs := 
0 22
1 37
2 39
3 28
4 27
5 23
6 29
7 23
8 28
9 24
10 25
11 29
12 36
13 25
14 33
15 33
16 35
17 38
18 32
19 31
20 33
21 24
22 27
23 33
24 23
25 39
26 25
27 34
28 24
29 39
30 40
31 26
32 33
33 30
34 30
35 27
36 28
37 38
38 40
39 24
;
param bv:	 0 1 2 3 4 5 6 7 8 9 10 11 12 13 14 15 16 17 := 
		0 0 0 0 0 10 0 0 0 11 0 0 0 0 0 0 0 0 0 
		1 0 0 0 0 0 22 0 0 0 0 0 0 0 0 0 0 0 0 
		2 0 0 0 0 0 0 0 0 0 0 0 14 0 14 0 0 0 0 
		3 0 0 0 0 0 23 23 0 0 15 0 0 0 0 0 0 0 0 
		4 0 0 0 0 0 0 0 0 0 0 0 0 0 0 0 0 0 12 
		5 0 0 0 0 0 0 0 0 0 0 0 0 0 0 0 0 0 0 
		6 0 0 0 0 0 0 0 0 0 16 0 0 0 0 0 20 0 0 
		7 0 0 0 0 0 0 0 0 0 0 0 14 0 0 24 11 0 0 
		8 0 0 0 0 0 0 0 0 0 0 0 0 0 0 0 0 24 0 
		9 0 0 0 0 0 0 0 0 0 0 0 0 0 0 0 0 0 0 
		10 0 0 0 0 0 0 0 0 0 0 0 0 0 0 15 0 0 0 
		11 0 0 0 0 0 0 0 0 0 0 0 0 0 0 10 0 0 0 
		12 0 0 0 0 0 0 0 0 0 0 0 0 0 0 0 0 0 10 
		13 0 0 0 0 0 0 0 0 0 0 0 0 0 0 0 0 0 0 
		14 0 0 0 0 0 0 0 0 0 0 0 0 0 0 0 0 0 15 
		15 0 0 0 0 0 0 0 0 0 0 0 0 0 0 0 0 0 0 
		16 0 0 0 0 0 0 0 0 0 0 0 0 0 0 0 0 0 0 
		17 0 0 0 0 0 0 0 0 0 0 0 0 0 0 0 0 0 0 
;
param bs:	 0 1 2 3 4 5 6 7 8 9 10 11 12 13 14 15 16 17 18 19 20 21 22 23 24 25 26 27 28 29 30 31 32 33 34 35 36 37 38 39 := 
		0 0 0 0 0 0 25 0 0 0 0 0 0 39 0 0 0 0 0 38 0 0 0 0 0 0 0 0 0 0 0 0 0 0 0 0 32 28 0 0 0 
		1 0 0 0 0 27 0 0 0 0 38 0 0 0 0 0 0 0 0 0 0 0 0 0 0 0 0 0 0 0 0 0 0 0 0 20 0 29 0 0 0 
		2 0 0 0 0 0 0 0 0 0 0 0 0 37 0 0 0 0 0 0 0 36 0 0 22 39 0 30 0 0 0 0 0 0 0 0 0 22 0 0 29 
		3 0 0 0 0 0 0 0 0 0 0 0 0 0 0 0 0 0 0 0 29 0 0 0 0 0 0 0 37 0 0 0 0 0 0 0 0 35 0 0 0 
		4 0 27 0 0 0 0 33 0 0 0 0 0 0 0 0 0 0 0 36 0 0 0 0 0 0 0 0 0 0 34 0 0 0 20 22 33 0 0 0 0 
		5 25 0 0 0 0 0 0 0 0 0 0 0 29 0 0 0 0 0 0 0 0 0 0 0 0 0 0 0 0 0 26 0 0 0 0 0 0 0 40 31 
		6 0 0 0 0 33 0 0 0 0 21 0 0 0 0 0 0 0 0 0 0 0 0 0 0 0 0 0 0 0 0 39 0 0 0 0 0 0 0 0 0 
		7 0 0 0 0 0 0 0 0 0 0 0 0 0 35 0 0 0 0 0 0 0 0 0 0 0 0 0 0 30 0 0 0 0 0 0 0 0 0 0 0 
		8 0 0 0 0 0 0 0 0 0 0 0 0 0 0 0 0 0 0 22 0 0 29 0 0 0 0 0 0 0 0 0 24 29 0 0 0 0 0 40 0 
		9 0 38 0 0 0 0 21 0 0 0 0 0 0 0 0 0 0 26 0 0 0 0 0 0 0 0 0 0 0 0 0 0 0 0 29 0 0 35 0 0 
		10 0 0 0 0 0 0 0 0 0 0 0 0 29 0 0 0 0 0 0 0 0 0 0 0 0 0 0 0 0 0 0 0 0 0 39 0 0 0 0 0 
		11 0 0 0 0 0 0 0 0 0 0 0 0 0 0 0 0 0 0 0 0 0 0 0 0 0 0 0 0 0 22 0 0 0 0 0 0 0 0 0 0 
		12 39 0 37 0 0 29 0 0 0 0 29 0 0 0 0 0 0 0 0 0 0 0 0 0 0 0 0 0 0 0 0 0 0 34 0 0 26 0 0 0 
		13 0 0 0 0 0 0 0 35 0 0 0 0 0 0 0 0 0 0 0 0 0 0 0 0 0 0 0 0 0 0 0 0 0 0 0 0 26 0 0 0 
		14 0 0 0 0 0 0 0 0 0 0 0 0 0 0 0 0 0 0 0 0 0 0 0 0 0 0 34 0 28 0 0 0 0 0 0 0 29 0 0 0 
		15 0 0 0 0 0 0 0 0 0 0 0 0 0 0 0 0 29 0 0 0 0 0 31 0 27 0 0 0 0 0 0 0 0 0 0 0 0 0 0 0 
		16 0 0 0 0 0 0 0 0 0 0 0 0 0 0 0 29 0 27 0 0 0 0 0 0 35 0 0 0 0 0 29 0 0 0 0 0 0 0 0 0 
		17 0 0 0 0 0 0 0 0 0 26 0 0 0 0 0 0 27 0 0 0 0 0 0 0 0 0 0 0 0 0 0 0 0 0 27 38 0 0 0 0 
		18 38 0 0 0 36 0 0 0 22 0 0 0 0 0 0 0 0 0 0 0 0 0 0 0 0 0 0 0 0 0 0 0 0 20 0 0 23 0 35 0 
		19 0 0 0 29 0 0 0 0 0 0 0 0 0 0 0 0 0 0 0 0 0 0 0 0 0 0 0 0 0 0 0 0 0 0 0 0 0 0 0 0 
		20 0 0 36 0 0 0 0 0 0 0 0 0 0 0 0 0 0 0 0 0 0 0 0 0 0 0 0 0 0 0 0 0 0 0 0 0 40 0 0 0 
		21 0 0 0 0 0 0 0 0 29 0 0 0 0 0 0 0 0 0 0 0 0 0 0 0 0 0 0 0 0 0 0 33 0 0 0 0 0 0 24 0 
		22 0 0 0 0 0 0 0 0 0 0 0 0 0 0 0 31 0 0 0 0 0 0 0 0 0 0 0 0 0 0 0 24 0 0 0 0 0 0 0 0 
		23 0 0 22 0 0 0 0 0 0 0 0 0 0 0 0 0 0 0 0 0 0 0 0 0 0 0 0 0 0 0 0 0 0 0 0 0 0 0 0 0 
		24 0 0 39 0 0 0 0 0 0 0 0 0 0 0 0 27 35 0 0 0 0 0 0 0 0 0 0 0 0 0 0 0 0 0 0 0 22 0 0 0 
		25 0 0 0 0 0 0 0 0 0 0 0 0 0 0 0 0 0 0 0 0 0 0 0 0 0 0 35 0 0 0 26 0 0 0 0 0 0 21 0 0 
		26 0 0 30 0 0 0 0 0 0 0 0 0 0 0 34 0 0 0 0 0 0 0 0 0 0 35 0 0 0 0 0 0 0 0 0 0 0 36 0 0 
		27 0 0 0 37 0 0 0 0 0 0 0 0 0 0 0 0 0 0 0 0 0 0 0 0 0 0 0 0 0 0 0 0 29 0 0 20 0 0 0 34 
		28 0 0 0 0 0 0 0 30 0 0 0 0 0 0 28 0 0 0 0 0 0 0 0 0 0 0 0 0 0 0 0 0 0 0 0 0 0 21 0 32 
		29 0 0 0 0 34 0 0 0 0 0 0 22 0 0 0 0 0 0 0 0 0 0 0 0 0 0 0 0 0 0 0 0 0 0 39 0 0 23 0 20 
		30 0 0 0 0 0 26 39 0 0 0 0 0 0 0 0 0 29 0 0 0 0 0 0 0 0 26 0 0 0 0 0 0 0 0 0 0 0 0 0 0 
		31 0 0 0 0 0 0 0 0 24 0 0 0 0 0 0 0 0 0 0 0 0 33 24 0 0 0 0 0 0 0 0 0 0 0 0 0 0 0 0 0 
		32 0 0 0 0 0 0 0 0 29 0 0 0 0 0 0 0 0 0 0 0 0 0 0 0 0 0 0 29 0 0 0 0 0 0 0 30 0 0 0 36 
		33 0 0 0 0 20 0 0 0 0 0 0 0 34 0 0 0 0 0 20 0 0 0 0 0 0 0 0 0 0 0 0 0 0 0 0 0 0 0 0 0 
		34 0 20 0 0 22 0 0 0 0 29 39 0 0 0 0 0 0 27 0 0 0 0 0 0 0 0 0 0 0 39 0 0 0 0 0 0 0 36 0 26 
		35 32 0 0 0 33 0 0 0 0 0 0 0 0 0 0 0 0 38 0 0 0 0 0 0 0 0 0 20 0 0 0 0 30 0 0 0 0 0 0 0 
		36 28 29 22 35 0 0 0 0 0 0 0 0 26 26 29 0 0 0 23 0 40 0 0 0 22 0 0 0 0 0 0 0 0 0 0 0 0 0 28 0 
		37 0 0 0 0 0 0 0 0 0 35 0 0 0 0 0 0 0 0 0 0 0 0 0 0 0 21 36 0 21 23 0 0 0 0 36 0 0 0 0 0 
		38 0 0 0 0 0 40 0 0 40 0 0 0 0 0 0 0 0 0 35 0 0 24 0 0 0 0 0 0 0 0 0 0 0 0 0 0 28 0 0 0 
		39 0 0 29 0 0 31 0 0 0 0 0 0 0 0 0 0 0 0 0 0 0 0 0 0 0 0 0 34 32 20 0 0 36 0 26 0 0 0 0 0 
;
